c A SAT instance generated from a 3-CNF formula that had 40 clauses and 10 variables
p cnf 10 40
-4 6 7 0
3 9 -5 0
-8 -2 1 0
10 5 2 0
9 8 1 0
-1 6 3 0
-10 9 -2 0
7 -6 -4 0
-10 -6 7 0
-8 5 6 0
1 9 6 0
-3 5 4 0
-6 1 -7 0
-7 5 10 0
8 7 3 0
-2 10 -4 0
-8 9 -5 0
6 2 10 0
-5 -10 2 0
-9 -8 -7 0
6 8 7 0
-2 6 1 0
-8 -9 -6 0
-1 -2 -10 0
-10 -7 6 0
4 -5 9 0
-4 6 9 0
-6 -10 -4 0
6 4 -9 0
-2 -9 5 0
2 -7 4 0
-6 10 -9 0
-6 8 10 0
10 1 -6 0
1 -8 3 0
3 -5 1 0
-5 -10 9 0
7 -9 -4 0
-8 9 3 0
6 1 3 0
